100
128
24
10
22
22
56
19
3
22
15
2
3
20
47
50
6
26
7
18
9
15
10
23
39
19
39
9
15
63
2
25
10
30
62
20
47
29
50
10
59
25
32
42
33
28
25
30
12
29
55
42
26
52
8
26
18
44
24
38
36
53
13
1
58
27
42
43
62
23
30
62
32
43
30
55
56
28
58
57
57
47
64
64
43
24
9
43
34
51
1
52
32
54
34
44
40
53
11
3
60
1